
Gurobi 8.1.1 (win64, Python) logging started 07/10/20 12:13:30

Academic license - for non-commercial use only

Gurobi 8.1.1 (win64, Python) logging started 07/10/20 13:19:14

Academic license - for non-commercial use only

Gurobi 8.1.1 (win64, Python) logging started 07/10/20 16:53:11

Academic license - for non-commercial use only

Gurobi 8.1.1 (win64, Python) logging started 07/10/20 19:14:23

Academic license - for non-commercial use only

Gurobi 8.1.1 (win64, Python) logging started 07/11/20 16:59:20

Academic license - for non-commercial use only
